(declare-const j Int)
(declare-const y Int)
(declare-const |j'| Int)
(declare-const |z'| Int)
(declare-const z Int)
(declare-const s Int)
(declare-const |x'| Int)
(declare-const x Int)
(assert (and (or (not (and (<= 0 s) (< s y)
                        (forall
                         ((|x'''?1| Int) (|x''?2| Int) (|z'''?3| Int)
                            (|z''?4| Int) (|j'''?5| Int) (|j''?6| Int)
                            (p?7 Int))
                         (or (not (and (<= 0 p?7) (< p?7 y) (not (= s p?7))
                                         (= (+ (- j) |j''?6|) 0)
                                         (= (+ (- x) |x''?2| (- p?7)) 0)
                                         (or (and (= p?7 0)
                                                    (= (+ x (- |x''?2|)) 0)
                                                    (= (+ z (- |z''?4|)) 0)
                                                    (= (+ j (- |j''?6|)) 0))
                                               (<= (+ 1 (- p?7)) 0))
                                         (not (and (or (< |z''?4| 0)
                                                         (< (- |z''?4|) 0)
                                                         (< |z'''?3| 0)
                                                         (< (- |z'''?3|) 0)
                                                         (< (+ |j''?6|
                                                                 (- |j'''?5|)) 0)
                                                         (< (+ (- |j''?6|)
                                                                 |j'''?5|) 0)
                                                         (< (+ -1 (- 
                                                                 |x''?2|)
                                                                 |x'''?1|) 0)
                                                         (< (+ 1 |x''?2|
                                                                 (- |x'''?1|)) 0)
                                                         (and (<= (+ 
                                                                  5
                                                                    (- 
                                                                    |j''?6|)) 0)
                                                                (<= (+ 
                                                                    -5
                                                                    |j''?6|) 0)))
                                                     (or (< (+ |j''?6|
                                                                 (- |j'''?5|)) 0)
                                                           (< (+ (- |j''?6|)
                                                                   |j'''?5|) 0)
                                                           (< (+ -1
                                                                   (- 
                                                                   |x''?2|)
                                                                   |x'''?1|) 0)
                                                           (< (+ 1 |x''?2|
                                                                   (- 
                                                                   |x'''?1|)) 0)
                                                           (and (<= (+ 
                                                                    5
                                                                    (- 
                                                                    |j''?6|)) 0)
                                                                  (<= 
                                                                  (+ 
                                                                  -5 |j''?6|) 0)
                                                                  (or 
                                                                  (< 
                                                                    (+ 
                                                                    -999
                                                                    |z'''?3|) 0)
                                                                    (< 
                                                                    (+ 
                                                                    999
                                                                    (- 
                                                                    |z'''?3|)) 0)))
                                                           (and (or (< 
                                                                    (+ 
                                                                    -5
                                                                    |j''?6|) 0)
                                                                    (< 
                                                                    (+ 
                                                                    5
                                                                    (- 
                                                                    |j''?6|)) 0))
                                                                  (or 
                                                                  (< 
                                                                    (+ 
                                                                    (- 
                                                                    |z''?4|)
                                                                    |z'''?3|) 0)
                                                                    (< 
                                                                    (+ 
                                                                    |z''?4|
                                                                    (- 
                                                                    |z'''?3|)) 0))))
                                                     (or (< |z''?4| 0)
                                                           (< (- |z''?4|) 0)
                                                           (< (+ -999
                                                                   |z'''?3|) 0)
                                                           (< (+ 999
                                                                   (- 
                                                                   |z'''?3|)) 0)
                                                           (< (+ |j''?6|
                                                                   (- 
                                                                   |j'''?5|)) 0)
                                                           (< (+ (- |j''?6|)
                                                                   |j'''?5|) 0)
                                                           (< (+ -1
                                                                   (- 
                                                                   |x''?2|)
                                                                   |x'''?1|) 0)
                                                           (< (+ 1 |x''?2|
                                                                   (- 
                                                                   |x'''?1|)) 0)
                                                           (< (+ -5 |j''?6|) 0)
                                                           (< (+ 5
                                                                   (- 
                                                                   |j''?6|)) 0))))
                                         (= (+ (- |j'''?5|) |j'|) 0)
                                         (= (+ (- |x'''?1|) |x'|
                                                 (- (+ y (- (+ 1 p?7))))) 0)
                                         (or (and (= (+ y (- (+ 1 p?7))) 0)
                                                    (= (+ |x'''?1| (- |x'|)) 0)
                                                    (= (+ |z'''?3| (- |z'|)) 0)
                                                    (= (+ |j'''?5| (- |j'|)) 0))
                                               (<= (+ 1
                                                        (- (+ y (- (+ 1 p?7))))) 0))))
                               (and (= |z''?4| |z'''?3|) (= |j''?6| |j'''?5|))))))
              (exists
               ((|x'''?8| Int) (|x''?9| Int) (|z'''?10| Int) (|z''?11| Int)
                  (|j'''?12| Int) (|j''?13| Int))
               (and (= (+ (- j) |j''?13|) 0) (= (+ (- x) |x''?9| (- s)) 0)
                      (or (and (= s 0) (= (+ x (- |x''?9|)) 0)
                                 (= (+ z (- |z''?11|)) 0)
                                 (= (+ j (- |j''?13|)) 0)) (<= (+ 1 (- s)) 0))
                      (not (and (or (< |z''?11| 0) (< (- |z''?11|) 0)
                                      (< |z'''?10| 0) (< (- |z'''?10|) 0)
                                      (< (+ |j''?13| (- |j'''?12|)) 0)
                                      (< (+ (- |j''?13|) |j'''?12|) 0)
                                      (< (+ -1 (- |x''?9|) |x'''?8|) 0)
                                      (< (+ 1 |x''?9| (- |x'''?8|)) 0)
                                      (and (<= (+ 5 (- |j''?13|)) 0)
                                             (<= (+ -5 |j''?13|) 0)))
                                  (or (< (+ |j''?13| (- |j'''?12|)) 0)
                                        (< (+ (- |j''?13|) |j'''?12|) 0)
                                        (< (+ -1 (- |x''?9|) |x'''?8|) 0)
                                        (< (+ 1 |x''?9| (- |x'''?8|)) 0)
                                        (and (<= (+ 5 (- |j''?13|)) 0)
                                               (<= (+ -5 |j''?13|) 0)
                                               (or (< (+ -999 |z'''?10|) 0)
                                                     (< (+ 999 (- |z'''?10|)) 0)))
                                        (and (or (< (+ -5 |j''?13|) 0)
                                                   (< (+ 5 (- |j''?13|)) 0))
                                               (or (< (+ (- |z''?11|)
                                                           |z'''?10|) 0)
                                                     (< (+ |z''?11|
                                                             (- |z'''?10|)) 0))))
                                  (or (< |z''?11| 0) (< (- |z''?11|) 0)
                                        (< (+ -999 |z'''?10|) 0)
                                        (< (+ 999 (- |z'''?10|)) 0)
                                        (< (+ |j''?13| (- |j'''?12|)) 0)
                                        (< (+ (- |j''?13|) |j'''?12|) 0)
                                        (< (+ -1 (- |x''?9|) |x'''?8|) 0)
                                        (< (+ 1 |x''?9| (- |x'''?8|)) 0)
                                        (< (+ -5 |j''?13|) 0)
                                        (< (+ 5 (- |j''?13|)) 0))))
                      (= (+ (- |j'''?12|) |j'|) 0)
                      (= (+ (- |x'''?8|) |x'| (- (+ y (- (+ 1 s))))) 0)
                      (or (and (= (+ y (- (+ 1 s))) 0)
                                 (= (+ |x'''?8| (- |x'|)) 0)
                                 (= (+ |z'''?10| (- |z'|)) 0)
                                 (= (+ |j'''?12| (- |j'|)) 0))
                            (<= (+ 1 (- (+ y (- (+ 1 s))))) 0))
                      (not (and (or (< |z''?11| 0) (< (- |z''?11|) 0)
                                      (< |z'''?10| 0) (< (- |z'''?10|) 0)
                                      (< (+ |j''?13| (- |j'''?12|)) 0)
                                      (< (+ (- |j''?13|) |j'''?12|) 0)
                                      (< (+ -1 (- |x''?9|) |x'''?8|) 0)
                                      (< (+ 1 |x''?9| (- |x'''?8|)) 0)
                                      (and (<= (+ 5 (- |j''?13|)) 0)
                                             (<= (+ -5 |j''?13|) 0)))
                                  (or (< (+ |j''?13| (- |j'''?12|)) 0)
                                        (< (+ (- |j''?13|) |j'''?12|) 0)
                                        (< (+ -1 (- |x''?9|) |x'''?8|) 0)
                                        (< (+ 1 |x''?9| (- |x'''?8|)) 0)
                                        (and (<= (+ 5 (- |j''?13|)) 0)
                                               (<= (+ -5 |j''?13|) 0)
                                               (or (< (+ -999 |z'''?10|) 0)
                                                     (< (+ 999 (- |z'''?10|)) 0)))
                                        (and (or (< (+ -5 |j''?13|) 0)
                                                   (< (+ 5 (- |j''?13|)) 0))
                                               (or (< (+ (- |z''?11|)
                                                           |z'''?10|) 0)
                                                     (< (+ |z''?11|
                                                             (- |z'''?10|)) 0))))
                                  (or (< |z''?11| 0) (< (- |z''?11|) 0)
                                        (< (+ -999 |z'''?10|) 0)
                                        (< (+ 999 (- |z'''?10|)) 0)
                                        (< (+ |j''?13| (- |j'''?12|)) 0)
                                        (< (+ (- |j''?13|) |j'''?12|) 0)
                                        (< (+ -1 (- |x''?9|) |x'''?8|) 0)
                                        (< (+ 1 |x''?9| (- |x'''?8|)) 0)
                                        (< (+ -5 |j''?13|) 0)
                                        (< (+ 5 (- |j''?13|)) 0))))
                      (= j |j''?13|) (= |j'| |j'''?12|) (= z |z''?11|)
                      (= |z'| |z'''?10|))))
                      (= j 5)
                      (! (= |z'| 999))
                      ))
(check-sat)
(get-model)
